WARNING: for repeatability, setting FPU to use double precision
============================[ Problem Statistics ]=============================
|                                                                             |
|  Number of variables:            50                                         |
|  Number of clauses:             218                                         |
|  Parse time:                   0.00 s                                       |
|                                                                             |
============================[ Search Statistics ]==============================
| Conflicts |          ORIGINAL         |          LEARNT          | Progress |
|           |    Vars  Clauses Literals |    Limit  Clauses Lit/Cl |          |
===============================================================================
|       100 |      47      213      639 |       79       67      4 |  6.042 % |
===============================================================================
restarts              : 2
conflicts             : 115            (69277 /sec)
decisions             : 129            (0.00 % random) (77711 /sec)
propagations          : 1751           (1054819 /sec)
conflict literals     : 430            (22.80 % deleted)
Memory used           : 20.00 MB
CPU time              : 0.00166 s

UNSATISFIABLE
